proyfinal/src/viki/013/andrea/andrea-localstore/experimentInOfficeAgust.take6/worker_2/655bba45-cd91-4881-88a1-e30e9d005a42.als.cnf.out
Reading from standard input... Use '--help' for help.
============================[ Problem Statistics ]=============================
|                                                                             |
|  Number of variables:         87638                                         |
|  Number of clauses:          161767                                         |
|  Parse time:                   0.03 s                                       |
|                                                                             |
============================[ Search Statistics ]==============================
| Conflicts |          ORIGINAL         |          LEARNT          | Progress |
|           |    Vars  Clauses Literals |    Limit  Clauses Lit/Cl |          |
===============================================================================
|       100 |   62085   104309   260177 |    38246      100      8 | 29.157 % |
|       250 |   62059   104309   260177 |    42071      249     36 | 29.187 % |
|       475 |   62059   104205   259927 |    46278      473     51 | 29.187 % |
|       812 |   62059   104205   259927 |    50906      810    102 | 29.187 % |
|      1318 |   62059   104205   259927 |    55996     1316     83 | 29.187 % |
|      2077 |   62033   104101   259677 |    61596     2073     75 | 29.217 % |
|      3216 |   62014   103983   259416 |    67756     2818     78 | 29.238 % |
|      4924 |   61840   103285   257745 |    74531     4513     79 | 29.437 % |
|      7486 |   61820   103207   257558 |    81985     7073     90 | 29.460 % |
|     11330 |   53043    77032   193552 |    90183     8540     88 | 39.475 % |
===============================================================================
restarts              : 62
conflicts             : 15149          (7776 /sec)
decisions             : 48885          (0.00 % random) (25092 /sec)
propagations          : 19972021       (10251430 /sec)
conflict literals     : 1151068        (50.20 % deleted)
Memory used           : 35.74 MB
CPU time              : 1.94822 s

UNSATISFIABLE
